ssat_solver_solve2
#level: 2
Abc_NtkNodeNum(s->pNtk): 302  , BDD limit: 10240
Build BDD success
level 1: 10 element
Exist
level 0: 10 element
Random
c ssat solving in ABC
#var: 20
s SATISFIABLE
  > Upper bound = 4.882812e-01
  > Lower bound = 4.882812e-01
FINISHED CPU 0.13 MEM 60108 MAXMEM 60108 STALE 0 MAXMEM_RSS 0
<time name="ALL">170</time>
real 0.29
user 0.23
sys 0.14
